
n_res = 6;
rcap = [33, 34, 266, 269, 281, 257];
rtype = [1, 1, 2, 2, 2, 2];
n_tasks = 50;
modes =  [{1, 2, 3}, {4, 5, 6}, {7, 8, 9}, {10, 11, 12}, {13, 14, 15}, {16, 17, 18}, {19, 20, 21}, {22, 23, 24}, {25, 26, 27}, {28, 29, 30}, {31, 32, 33}, {34, 35, 36}, {37, 38, 39}, {40, 41, 42}, {43, 44, 45}, {46, 47, 48}, {49, 50, 51}, {52, 53, 54}, {55, 56, 57}, {58, 59, 60}, {61, 62, 63}, {64, 65, 66}, {67, 68, 69}, {70, 71, 72}, {73, 74, 75}, {76, 77, 78}, {79, 80, 81}, {82, 83, 84}, {85, 86, 87}, {88, 89, 90}, {91, 92, 93}, {94, 95, 96}, {97, 98, 99}, {100, 101, 102}, {103, 104, 105}, {106, 107, 108}, {109, 110, 111}, {112, 113, 114}, {115, 116, 117}, {118, 119, 120}, {121, 122, 123}, {124, 125, 126}, {127, 128, 129}, {130, 131, 132}, {133, 134, 135}, {136, 137, 138}, {139, 140, 141}, {142, 143, 144}, {145, 146, 147}, {148, 149, 150}];
succ =  [{9, 8, 6, 5}, {16, 13, 11, 10}, {15, 11, 8}, {24, 12, 7}, {24, 16, 15, 13, 11}, {24, 23, 16, 15, 14}, {15, 13, 11}, {24, 23, 20, 16, 13}, {23, 20, 16, 14, 13}, {24, 23, 12}, {23, 20, 19, 14}, {20, 19, 14}, {21, 19, 18, 17}, {21, 18, 17}, {31, 21, 20, 19}, {27, 21, 18}, {35, 34, 31, 26, 25, 22}, {31, 29, 28, 25, 22}, {29, 28, 26, 25}, {34, 27, 25}, {37, 35, 34, 33, 28}, {40, 37, 36, 33, 30}, {38, 37, 35, 34, 33}, {37, 36, 27}, {38, 37, 36, 32}, {37, 27}, {40, 30}, {40, 30}, {43, 35, 34}, {39, 32}, {39, 32}, {43, 42, 41}, {46, 43, 39}, {50, 42, 41}, {50, 46, 39}, {43, 39}, {49, 43, 42}, {41, 40}, {49, 42}, {50, 49, 47, 44}, {47, 46, 44}, {45, 44}, {50, 47}, {48}, {47}, {49}, {}, {}, {}, {}];
n_opt = 150;
dur = [2, 3, 7, 3, 4, 5, 2, 4, 10, 3, 9, 10, 2, 7, 8, 1, 2, 7, 6, 7, 8, 6, 7, 9, 5, 6, 10, 7, 8, 9, 1, 3, 7, 2, 3, 6, 6, 7, 10, 1, 5, 9, 2, 4, 10, 8, 9, 10, 1, 2, 5, 1, 2, 5, 2, 3, 6, 6, 8, 9, 1, 5, 6, 1, 4, 8, 3, 4, 6, 2, 6, 9, 4, 5, 9, 2, 6, 7, 2, 5, 6, 1, 3, 7, 1, 2, 7, 5, 6, 9, 3, 9, 10, 4, 5, 6, 4, 6, 7, 2, 3, 8, 2, 5, 9, 2, 3, 5, 1, 2, 4, 6, 7, 9, 4, 9, 10, 3, 5, 8, 5, 7, 8, 2, 4, 5, 2, 3, 8, 3, 7, 8, 4, 5, 9, 6, 7, 9, 3, 4, 9, 3, 4, 6, 7, 8, 10, 3, 7, 9];
rreq = [|9, 7, 4, 4, 3, 3, 9, 5, 3, 7, 5, 5, 10, 8, 4, 9, 8, 7, 1, 1, 1, 7, 6, 5, 3, 2, 2, 8, 8, 8, 6, 6, 5, 6, 5, 2, 4, 4, 3, 1, 1, 1, 8, 7, 6, 7, 5, 3, 8, 7, 7, 7, 6, 5, 5, 4, 4, 5, 5, 5, 5, 5, 2, 3, 3, 2, 8, 7, 7, 10, 7, 3, 8, 5, 2, 6, 4, 3, 6, 6, 2, 5, 5, 3, 8, 8, 7, 9, 7, 4, 5, 4, 2, 8, 8, 8, 6, 6, 3, 9, 4, 2, 7, 7, 6, 7, 7, 6, 6, 6, 6, 8, 6, 6, 7, 4, 2, 10, 9, 9, 8, 7, 6, 6, 6, 6, 4, 3, 3, 6, 4, 4, 8, 8, 8, 10, 8, 5, 10, 7, 5, 8, 7, 6, 8, 8, 6, 9, 8, 8
 |6, 6, 4, 5, 4, 3, 6, 4, 3, 9, 7, 5, 9, 8, 7, 6, 5, 5, 5, 4, 3, 9, 6, 5, 5, 3, 2, 5, 4, 2, 7, 5, 3, 6, 5, 5, 9, 9, 7, 7, 7, 4, 3, 3, 2, 6, 4, 1, 5, 4, 3, 3, 2, 1, 1, 1, 1, 5, 3, 2, 2, 1, 1, 5, 4, 4, 7, 5, 5, 6, 3, 2, 8, 5, 4, 10, 9, 8, 7, 5, 2, 6, 3, 3, 8, 5, 5, 7, 4, 2, 3, 3, 1, 10, 10, 10, 5, 3, 2, 9, 9, 9, 7, 5, 4, 8, 8, 6, 7, 5, 2, 8, 7, 6, 6, 6, 6, 10, 4, 2, 3, 3, 3, 7, 7, 7, 3, 3, 3, 6, 4, 2, 3, 2, 2, 10, 7, 6, 1, 1, 1, 7, 6, 4, 5, 3, 3, 9, 7, 5
 |6, 5, 3, 4, 3, 2, 3, 2, 1, 9, 5, 3, 9, 5, 4, 7, 6, 5, 8, 7, 7, 2, 1, 1, 10, 9, 8, 5, 3, 3, 8, 7, 7, 1, 1, 1, 6, 5, 3, 10, 7, 4, 8, 6, 6, 9, 5, 4, 4, 3, 3, 8, 7, 6, 1, 1, 1, 8, 7, 6, 8, 6, 6, 7, 6, 5, 9, 7, 6, 7, 6, 4, 6, 5, 5, 10, 10, 10, 1, 1, 1, 7, 6, 6, 10, 7, 6, 6, 3, 3, 10, 8, 6, 3, 3, 3, 6, 2, 2, 7, 5, 3, 3, 2, 2, 2, 2, 2, 3, 3, 3, 7, 5, 4, 8, 7, 6, 5, 3, 2, 7, 6, 6, 9, 7, 7, 10, 8, 8, 8, 8, 7, 2, 1, 1, 4, 3, 2, 10, 9, 8, 7, 5, 3, 7, 7, 6, 4, 3, 2
 |5, 3, 3, 5, 5, 5, 9, 8, 8, 5, 3, 3, 4, 4, 4, 7, 7, 5, 4, 2, 2, 7, 3, 3, 10, 10, 10, 9, 6, 4, 6, 6, 4, 5, 3, 2, 8, 8, 8, 2, 2, 2, 6, 6, 6, 10, 7, 7, 6, 5, 4, 8, 8, 8, 1, 1, 1, 4, 3, 1, 9, 7, 7, 10, 8, 8, 5, 3, 3, 10, 5, 4, 2, 2, 2, 9, 7, 5, 6, 4, 2, 4, 3, 2, 9, 8, 8, 9, 7, 7, 7, 7, 6, 6, 6, 6, 6, 6, 6, 9, 7, 7, 2, 1, 1, 9, 9, 9, 7, 5, 4, 2, 2, 1, 9, 7, 5, 2, 2, 1, 6, 5, 3, 5, 4, 4, 7, 5, 1, 8, 7, 5, 5, 5, 5, 3, 3, 3, 6, 5, 5, 6, 6, 6, 7, 4, 4, 7, 6, 6
 |5, 5, 5, 8, 8, 6, 2, 2, 1, 10, 7, 4, 9, 8, 7, 3, 3, 3, 7, 6, 2, 7, 6, 3, 10, 8, 8, 7, 6, 6, 6, 5, 3, 5, 3, 3, 5, 5, 4, 8, 6, 6, 9, 6, 5, 9, 7, 6, 9, 9, 8, 7, 7, 4, 7, 6, 3, 7, 5, 2, 6, 6, 5, 8, 6, 3, 6, 4, 3, 5, 4, 3, 9, 8, 8, 6, 4, 3, 9, 9, 9, 8, 6, 4, 2, 1, 1, 7, 7, 5, 9, 7, 5, 4, 4, 3, 5, 4, 3, 6, 3, 2, 9, 9, 8, 5, 3, 3, 7, 5, 4, 7, 7, 5, 4, 3, 3, 7, 7, 4, 7, 6, 5, 5, 5, 5, 9, 9, 9, 7, 4, 4, 8, 5, 5, 7, 7, 2, 8, 3, 3, 8, 7, 6, 7, 7, 5, 8, 6, 2
 |9, 7, 5, 5, 5, 5, 7, 7, 7, 8, 7, 7, 1, 1, 1, 7, 7, 3, 2, 2, 2, 2, 1, 1, 7, 4, 3, 6, 4, 3, 4, 4, 3, 6, 6, 5, 6, 4, 3, 1, 1, 1, 8, 7, 7, 7, 5, 2, 6, 6, 5, 9, 5, 5, 7, 5, 4, 8, 7, 6, 8, 8, 8, 3, 1, 1, 5, 2, 1, 10, 9, 8, 6, 6, 4, 5, 4, 2, 7, 5, 4, 3, 2, 2, 8, 7, 5, 9, 7, 5, 6, 5, 4, 10, 9, 9, 3, 3, 3, 9, 6, 4, 9, 6, 3, 9, 8, 8, 1, 1, 1, 6, 4, 4, 9, 7, 7, 5, 5, 2, 4, 4, 3, 10, 9, 8, 9, 6, 2, 5, 4, 2, 6, 4, 3, 8, 5, 2, 3, 3, 3, 10, 7, 5, 5, 5, 3, 9, 6, 5|];